1 1 -2 0
1 -1 -3 0
1 1 4 0
1 1 -5 0
1 2 -6 0
1 -2 7 0
1 2 -8 0
1 2 -1 0
1 -2 5 0
1 -9 -10 0
1 9 -11 0
1 -9 7 0
1 9 -8 0
1 9 12 0
1 -9 -13 0
1 -9 -14 0
1 -9 -3 0
1 15 10 0
1 -15 -16 0
1 15 7 0
1 15 8 0
1 15 -13 0
1 15 -3 0
1 -15 5 0
1 -8 -17 0
1 8 18 0
1 -8 -19 0
1 8 -15 0
1 8 -20 0
1 -8 -21 0
1 -8 -22 0
1 -8 -9 0
1 8 -1 0
1 8 5 0
1 5 -23 0
1 5 -18 0
1 -5 -19 0
1 -5 15 0
1 -5 2 0
1 -5 8 0
1 -5 -21 0
1 -5 22 0
1 -5 24 0
1 5 9 0
1 5 1 0
1 7 -17 0
1 7 25 0
1 7 -15 0
1 -7 -2 0
1 -7 26 0
1 7 21 0
1 -7 -27 0
1 7 28 0
1 7 -9 0
1 7 1 0
1 -3 29 0
1 3 -25 0
1 3 15 0
1 -3 2 0
1 -3 7 0
1 3 21 0
1 -3 -27 0
1 -3 9 0
1 -24 -10 0
1 24 -11 0
1 24 19 0
1 24 8 0
1 24 -12 0
1 -24 -13 0
1 24 -28 0
1 24 5 0
1 19 -11 0
1 19 -25 0
1 -19 8 0
1 -19 -12 0
1 19 13 0
1 19 -24 0
1 19 5 0
1 -22 10 0
1 22 -11 0
1 -22 -18 0
1 -22 -30 0
1 -22 -31 0
1 22 8 0
1 -22 12 0
1 22 -13 0
1 -22 32 0
1 -22 -27 0
1 -22 5 0
1 -18 10 0
1 18 11 0
1 -18 30 0
1 18 -29 0
1 -18 31 0
1 -18 8 0
1 -18 -13 0
1 -18 -22 0
1 18 -33 0
1 -18 5 0
1 -13 34 0
1 -13 -35 0
1 13 11 0
1 13 18 0
1 13 -36 0
1 -13 37 0
1 13 38 0
1 13 -39 0
1 -13 -22 0
1 -13 24 0
1 13 -9 0
1 -11 -34 0
1 11 35 0
1 -11 40 0
1 -11 19 0
1 -11 15 0
1 11 -37 0
1 11 -38 0
1 11 13 0
1 11 -22 0
1 -11 -24 0
1 11 9 0
1 11 41 0
1 12 42 0
1 -12 17 0
1 -12 18 0
1 -12 19 0
1 -12 -15 0
1 12 -43 0
1 -12 44 0
1 12 21 0
1 12 22 0
1 12 9 0
1 12 41 0
1 10 -42 0
1 10 45 0
1 10 17 0
1 -10 18 0
1 10 -19 0
1 10 15 0
1 10 -36 0
1 10 12 0
1 -10 -43 0
1 10 -21 0
1 -10 22 0
1 10 24 0
1 -10 41 0
1 38 -35 0
1 -38 -30 0
1 -38 13 0
1 -38 21 0
1 38 -32 0
1 -38 33 0
1 -35 -11 0
1 35 17 0
1 35 -30 0
1 -35 -38 0
1 -35 -13 0
1 -35 32 0
1 37 34 0
1 -37 -11 0
1 37 -30 0
1 37 31 0
1 37 -43 0
1 37 -13 0
1 37 32 0
1 37 -33 0
1 34 -42 0
1 -34 -11 0
1 -34 -30 0
1 34 -31 0
1 34 13 0
1 -34 -33 0
1 -33 -35 0
1 33 -18 0
1 33 31 0
1 33 -46 0
1 -33 -38 0
1 -33 -22 0
1 31 -34 0
1 31 18 0
1 31 47 0
1 31 -46 0
1 31 38 0
1 31 -22 0
1 31 33 0
1 -31 -48 0
1 32 -35 0
1 -32 18 0
1 -32 30 0
1 -32 46 0
1 32 -49 0
1 -32 -36 0
1 -32 -37 0
1 32 -38 0
1 -32 22 0
1 -32 50 0
1 -32 51 0
1 32 -41 0
1 30 -34 0
1 30 35 0
1 -30 -18 0
1 30 -52 0
1 30 -46 0
1 -30 -49 0
1 -30 -36 0
1 -30 37 0
1 -30 38 0
1 30 -22 0
1 30 -48 0
1 -30 41 0
1 -4 53 0
1 4 -6 0
1 -4 54 0
1 -4 -55 0
1 4 1 0
1 6 -53 0
1 6 -56 0
1 6 2 0
1 -6 -54 0
1 -6 55 0
1 6 4 0
1 14 53 0
1 -14 56 0
1 -14 -57 0
1 14 -58 0
1 14 55 0
1 14 59 0
1 -14 60 0
1 14 9 0
1 -16 -56 0
1 16 -58 0
1 -16 -15 0
1 -16 -54 0
1 -16 -55 0
1 16 -59 0
1 16 60 0
1 16 14 0
1 56 -29 0
1 -56 25 0
1 -56 16 0
1 -56 6 0
1 -56 -55 0
1 -56 27 0
1 55 -56 0
1 -55 29 0
1 55 25 0
1 -55 16 0
1 -55 -61 0
1 55 28 0
1 -55 14 0
1 -55 4 0
1 -53 -62 0
1 53 16 0
1 -53 6 0
1 -53 54 0
1 53 4 0
1 54 53 0
1 54 -6 0
1 54 -63 0
1 54 14 0
1 -54 -4 0
1 28 56 0
1 -28 57 0
1 28 25 0
1 28 58 0
1 28 7 0
1 28 -24 0
1 -28 3 0
1 25 56 0
1 25 -57 0
1 -25 19 0
1 -25 -58 0
1 -25 7 0
1 25 -59 0
1 -25 60 0
1 25 28 0
1 -25 -3 0
1 27 56 0
1 -27 29 0
1 -27 -57 0
1 -27 58 0
1 -27 -64 0
1 -27 7 0
1 27 -55 0
1 27 -22 0
1 27 60 0
1 27 65 0
1 -27 66 0
1 -27 -3 0
1 -29 60 0
1 29 56 0
1 -29 -18 0
1 -29 -57 0
1 29 -58 0
1 29 67 0
1 29 -7 0
1 29 55 0
1 -29 -59 0
1 -29 -27 0
1 -29 65 0
1 29 66 0
1 -58 -60 0
1 -58 -42 0
1 -58 17 0
1 -58 29 0
1 -58 25 0
1 58 16 0
1 -58 -68 0
1 58 43 0
1 -58 21 0
1 58 -27 0
1 58 28 0
1 58 -14 0
1 60 -69 0
1 -60 42 0
1 -60 17 0
1 60 -29 0
1 -60 -25 0
1 -60 -58 0
1 -60 16 0
1 -60 68 0
1 -60 43 0
1 -60 21 0
1 -60 27 0
1 -60 70 0
1 60 28 0
1 57 29 0
1 57 71 0
1 57 25 0
1 -57 -16 0
1 57 68 0
1 -57 -59 0
1 57 27 0
1 57 -14 0
1 -59 -69 0
1 59 -29 0
1 -59 57 0
1 59 -25 0
1 -59 16 0
1 59 -68 0
1 -59 27 0
1 59 72 0
1 -59 -28 0
1 59 14 0
1 -21 -10 0
1 -21 64 0
1 -21 -7 0
1 -21 -8 0
1 21 -12 0
1 -21 38 0
1 -21 60 0
1 21 -65 0
1 -21 -3 0
1 21 -5 0
1 17 -35 0
1 17 67 0
1 -17 -7 0
1 17 8 0
1 17 60 0
1 17 -65 0
1 -17 -66 0
1 -17 3 0
1 -43 10 0
1 43 42 0
1 -43 58 0
1 43 -67 0
1 43 -64 0
1 43 20 0
1 -43 -12 0
1 43 -37 0
1 -43 -60 0
1 -43 -65 0
1 43 66 0
1 -43 73 0
1 42 23 0
1 42 -34 0
1 42 -10 0
1 -42 58 0
1 42 67 0
1 -42 64 0
1 -42 -26 0
1 -42 43 0
1 -42 -60 0
1 -42 -65 0
1 -42 -66 0
1 -42 73 0
1 64 42 0
1 64 -17 0
1 -64 29 0
1 64 -74 0
1 -64 -75 0
1 -64 36 0
1 -64 -21 0
1 -64 -76 0
1 -64 41 0
1 -66 42 0
1 66 -17 0
1 -66 29 0
1 66 64 0
1 -66 74 0
1 -66 -49 0
1 66 36 0
1 -66 77 0
1 66 43 0
1 66 21 0
1 66 27 0
1 66 -76 0
1 -66 -51 0
1 -66 41 0
1 67 69 0
1 -67 42 0
1 67 17 0
1 -67 29 0
1 -67 -78 0
1 -67 -79 0
1 67 -68 0
1 67 43 0
1 -67 27 0
1 67 -65 0
1 67 -80 0
1 65 69 0
1 -65 42 0
1 -65 -17 0
1 65 -29 0
1 65 74 0
1 -65 68 0
1 -65 -43 0
1 65 -21 0
1 65 27 0
1 65 80 0
1 -36 10 0
1 36 -11 0
1 36 -30 0
1 -36 -68 0
1 36 -12 0
1 36 -20 0
1 36 -66 0
1 -36 73 0
1 -36 -41 0
1 41 -69 0
1 41 11 0
1 -41 30 0
1 41 64 0
1 -41 -26 0
1 -41 36 0
1 -41 -20 0
1 -41 -12 0
1 41 -13 0
1 -41 -32 0
1 -41 -66 0
1 -41 73 0
1 49 -23 0
1 -49 -30 0
1 -49 64 0
1 -49 -79 0
1 49 -26 0
1 49 -20 0
1 49 39 0
1 -49 -32 0
1 49 51 0
1 -49 -73 0
1 51 -23 0
1 51 -45 0
1 -51 -40 0
1 51 64 0
1 -51 -49 0
1 51 26 0
1 51 20 0
1 -51 44 0
1 -51 39 0
1 51 -73 0
1 51 -66 0
1 -20 23 0
1 -20 42 0
1 -20 -81 0
1 -20 36 0
1 -20 8 0
1 20 43 0
1 -20 -82 0
1 -20 -83 0
1 -20 48 0
1 20 -51 0
1 20 -41 0
1 -23 42 0
1 23 81 0
1 -23 84 0
1 23 43 0
1 23 82 0
1 -23 -48 0
1 -23 51 0
1 -23 -41 0
1 26 -42 0
1 26 -81 0
1 -26 -85 0
1 -26 49 0
1 -26 -43 0
1 -26 -86 0
1 26 76 0
1 26 51 0
1 26 73 0
1 26 41 0
1 -73 -42 0
1 73 -85 0
1 73 -74 0
1 73 -49 0
1 73 43 0
1 -73 3 0
1 73 -86 0
1 -73 -76 0
1 -73 -51 0
1 73 41 0
1 -46 30 0
1 46 40 0
1 -46 31 0
1 46 74 0
1 -46 20 0
1 -46 -44 0
1 46 39 0
1 -46 -32 0
1 -46 33 0
1 46 48 0
1 48 23 0
1 48 45 0
1 -48 -30 0
1 -48 -31 0
1 -48 44 0
1 48 39 0
1 48 -32 0
1 48 33 0
1 84 -23 0
1 84 -83 0
1 -84 -47 0
1 84 85 0
1 84 20 0
1 -84 -39 0
1 -84 -50 0
1 -84 87 0
1 -83 -23 0
1 -83 -45 0
1 -83 -40 0
1 -83 52 0
1 83 -47 0
1 -83 84 0
1 83 -44 0
1 83 50 0
1 83 86 0
1 -39 -40 0
1 39 88 0
1 -39 89 0
1 -39 84 0
1 39 46 0
1 -39 -49 0
1 -39 -13 0
1 -39 -90 0
1 -39 83 0
1 -39 -48 0
1 -39 51 0
1 40 -11 0
1 40 88 0
1 -40 -89 0
1 -40 -84 0
1 -40 -46 0
1 -40 -49 0
1 40 91 0
1 40 39 0
1 40 -83 0
1 40 48 0
1 -40 -51 0
1 44 -45 0
1 -44 92 0
1 -44 -81 0
1 -44 -84 0
1 44 46 0
1 44 -49 0
1 -44 -12 0
1 44 -93 0
1 -44 82 0
1 -44 -83 0
1 -44 51 0
1 45 -92 0
1 45 -81 0
1 -45 84 0
1 45 46 0
1 -45 49 0
1 -45 82 0
1 -45 51 0
1 -89 52 0
1 89 47 0
1 89 -81 0
1 -89 50 0
1 -89 39 0
1 -89 -90 0
1 -89 87 0
1 90 -52 0
1 -90 89 0
1 90 -47 0
1 -90 39 0
1 -90 -50 0
1 -90 -82 0
1 -90 87 0
1 -88 -40 0
1 88 52 0
1 -88 -92 0
1 -88 47 0
1 -88 -91 0
1 -88 39 0
1 88 50 0
1 -88 87 0
1 91 40 0
1 -91 -88 0
1 91 52 0
1 91 47 0
1 91 -39 0
1 91 50 0
1 -91 87 0
1 -87 88 0
1 87 -89 0
1 87 33 0
1 -87 -83 0
1 47 -88 0
1 47 -31 0
1 -47 -89 0
1 -47 -84 0
1 -47 90 0
1 -47 -83 0
1 47 -87 0
1 -50 88 0
1 50 -52 0
1 -50 -89 0
1 50 84 0
1 -50 91 0
1 -50 -32 0
1 50 90 0
1 52 -30 0
1 -52 -88 0
1 -52 -89 0
1 52 -84 0
1 -52 -91 0
1 -52 -90 0
1 -52 -83 0
1 68 -69 0
1 68 62 0
1 -68 94 0
1 -68 57 0
1 68 58 0
1 -68 -67 0
1 -68 -36 0
1 -68 -61 0
1 68 59 0
1 -68 -60 0
1 68 -65 0
1 -69 -94 0
1 69 57 0
1 69 58 0
1 -69 -67 0
1 -69 -68 0
1 69 63 0
1 69 61 0
1 -69 -60 0
1 -69 65 0
1 69 41 0
1 -79 62 0
1 -79 71 0
1 -79 -95 0
1 -79 -49 0
1 -79 63 0
1 -79 -61 0
1 -79 72 0
1 79 -70 0
1 79 65 0
1 -79 -80 0
1 -80 62 0
1 80 -71 0
1 80 95 0
1 80 67 0
1 80 -79 0
1 -80 63 0
1 80 61 0
1 -80 72 0
1 80 -70 0
1 80 -65 0
1 80 51 0
1 -94 69 0
1 94 -85 0
1 -94 74 0
1 -94 79 0
1 -94 -68 0
1 94 86 0
1 94 80 0
1 61 69 0
1 61 85 0
1 -61 79 0
1 61 -55 0
1 -61 -86 0
1 -61 -76 0
1 62 69 0
1 -62 53 0
1 -62 -79 0
1 62 68 0
1 62 -63 0
1 -63 -69 0
1 63 62 0
1 63 -79 0
1 63 -68 0
1 -63 -54 0
1 -63 -80 0
1 -74 94 0
1 -74 -71 0
1 -74 95 0
1 74 67 0
1 -74 -46 0
1 74 -64 0
1 74 -26 0
1 -74 61 0
1 74 -70 0
1 -74 -65 0
1 -74 -66 0
1 -74 76 0
1 -74 73 0
1 -76 94 0
1 -76 71 0
1 -76 -95 0
1 -76 -67 0
1 76 -66 0
1 76 -64 0
1 76 74 0
1 -76 72 0
1 -76 70 0
1 76 65 0
1 85 -96 0
1 -85 -71 0
1 85 95 0
1 -85 84 0
1 85 -78 0
1 85 -75 0
1 85 -26 0
1 -85 61 0
1 85 -72 0
1 85 70 0
1 85 86 0
1 85 73 0
1 -86 94 0
1 -86 95 0
1 86 85 0
1 86 -78 0
1 -86 75 0
1 86 61 0
1 -86 -72 0
1 86 -70 0
1 -86 83 0
1 -86 -96 0
1 86 -77 0
1 86 73 0
1 95 -70 0
1 95 85 0
1 95 82 0
1 95 -86 0
1 -95 -76 0
1 -70 -81 0
1 -70 95 0
1 -70 85 0
1 -70 74 0
1 70 -79 0
1 70 -93 0
1 -70 -82 0
1 -70 -86 0
1 -70 76 0
1 -70 80 0
1 71 -57 0
1 71 85 0
1 71 74 0
1 71 79 0
1 71 72 0
1 -71 86 0
1 -71 -76 0
1 -71 80 0
1 72 71 0
1 -72 -79 0
1 -72 -59 0
1 72 -86 0
1 72 76 0
1 81 45 0
1 81 -70 0
1 81 -95 0
1 -81 -78 0
1 -81 -75 0
1 -81 -26 0
1 -81 20 0
1 81 -44 0
1 81 -82 0
1 81 96 0
1 81 -77 0
1 -82 -45 0
1 82 -81 0
1 -82 -95 0
1 82 -78 0
1 -82 -75 0
1 -82 -26 0
1 82 20 0
1 82 44 0
1 -82 -90 0
1 -82 -77 0
1 82 -73 0
1 92 45 0
1 92 95 0
1 92 78 0
1 -92 75 0
1 -92 44 0
1 92 93 0
1 -92 -70 0
1 92 -96 0
1 92 77 0
1 -93 -92 0
1 -93 -95 0
1 93 -78 0
1 -93 -75 0
1 -93 -44 0
1 93 91 0
1 93 -70 0
1 93 96 0
1 75 92 0
1 75 81 0
1 75 -64 0
1 75 -93 0
1 -75 -82 0
1 -75 86 0
1 75 77 0
1 -77 92 0
1 77 81 0
1 -77 93 0
1 -77 -82 0
1 -77 -86 0
1 -77 66 0
1 -78 92 0
1 78 96 0
1 78 -81 0
1 78 85 0
1 -78 93 0
1 -78 82 0
1 -96 -92 0
1 -96 -81 0
1 96 85 0
1 96 78 0
1 -96 -82 0
1 -96 -65 0
1 -96 -86 0
